
List of user-set options:

                                    Name   Value                used
                           compl_inf_tol = 1                     yes
                         constr_viol_tol = 1                     yes
                            dual_inf_tol = 1000                  yes
                           linear_solver = ma97                  yes
                              ma86_small = 1e-30                  no
                                  ma86_u = 0.0001                 no
                              ma97_order = best                  yes
                              ma97_small = 1e-30                 yes
                            ma97_switch1 = at_start              yes
                            ma97_switch2 = od_hd_reuse           yes
                                  ma97_u = 1e-06                 yes
                               ma97_umax = 0.5                   yes
                                max_iter = 2000                  yes
                    max_refinement_steps = 20                    yes
                    min_refinement_steps = 5                     yes
                                 mu_init = 1e-06                 yes
           mu_superlinear_decrease_power = 1.25                  yes
                   nlp_scaling_min_value = 1e-08                 yes
                        option_file_name = Preset_Case:_312_NCP.opt  yes
                             output_file = ./tmp/Preset_Case:_312_NCP.output  yes
                      print_user_options = yes                   yes
        required_infeasibility_reduction = 1                      no
                                     tol = 1e-08                 yes
                   warm_start_bound_frac = 1e-20                 yes
                   warm_start_bound_push = 1e-20                 yes
                   warm_start_init_point = yes                   yes
              warm_start_mult_bound_push = 1e-20                 yes
                warm_start_mult_init_max = 1e+40                 yes
             warm_start_slack_bound_frac = 1e-20                 yes
             warm_start_slack_bound_push = 1e-20                 yes

******************************************************************************
This program contains Ipopt, a library for large-scale nonlinear optimization.
 Ipopt is released as open source code under the Eclipse Public License (EPL).
         For more information visit http://projects.coin-or.org/Ipopt
******************************************************************************

This is Ipopt version 3.12.10, running with linear solver ma97.

Number of nonzeros in equality constraint Jacobian...:   117140
Number of nonzeros in inequality constraint Jacobian.:      213
Number of nonzeros in Lagrangian Hessian.............:    47462

Total number of variables............................:    29971
                     variables with only lower bounds:    11312
                variables with lower and upper bounds:    15132
                     variables with only upper bounds:        0
Total number of equality constraints.................:    29864
Total number of inequality constraints...............:       25
        inequality constraints with only lower bounds:        4
   inequality constraints with lower and upper bounds:        0
        inequality constraints with only upper bounds:       21

iter    objective    inf_pr   inf_du lg(mu)  ||d||  lg(rg) alpha_du alpha_pr  ls
   0 -3.4044236e-02 4.70e-02 1.10e+02  -6.0 0.00e+00    -  0.00e+00 0.00e+00   0
In iteration 0, 3 Slacks too small, adjusting variable bounds
   1 -3.4044236e-02 4.70e-02 9.84e+03  -6.0 1.12e+06  -2.0 7.11e-09 1.39e-16f  1
   2 -3.4044236e-02 4.70e-02 9.84e+03  -6.0 6.30e+02  -2.5 2.58e-04 3.21e-09f  1
   3 -3.4044865e-02 4.70e-02 9.84e+03  -6.0 7.69e+02  -2.1 1.54e-06 9.07e-05f  1
   4 -3.4051484e-02 4.70e-02 9.83e+03  -6.0 7.67e+02  -2.5 1.07e-03 7.97e-04f  1
   5 -3.4055349e-02 4.70e-02 9.82e+03  -6.0 7.63e+02  -2.1 8.06e-04 5.68e-04f  1
   6 -3.4070789e-02 4.69e-02 2.34e+06  -6.0 7.58e+02  -2.6 9.85e-01 1.84e-03f  1
   7 -3.3861875e-02 4.64e-02 2.28e+06  -6.0 7.44e+02  -2.2 7.24e-04 1.11e-02h  5
   8 -3.4126846e-02 4.58e-02 2.24e+06  -6.0 6.88e+02  -2.6 1.56e-02 1.22e-02h  1
   9 -3.4152598e-02 4.56e-02 2.17e+06  -6.0 6.18e+02  -2.2 3.91e-02 3.67e-02h  1
iter    objective    inf_pr   inf_du lg(mu)  ||d||  lg(rg) alpha_du alpha_pr  ls
  10 -3.4192077e-02 8.29e-02 2.09e+06  -6.0 4.68e+02  -2.7 2.94e-02 9.67e-03h  1
  11 -3.4287273e-02 1.33e-01 2.00e+06  -6.0 4.46e+02  -2.3 6.45e-02 2.25e-02h  1
  12 -3.4213362e-02 1.33e-01 1.98e+06  -6.0 3.97e+02  -1.8 9.43e-07 4.80e-03h  4
  13 -3.4201211e-02 1.33e-01 1.97e+06  -6.0 3.50e+02  -2.3 6.25e-03 9.99e-05h  7
  14 -3.4191777e-02 1.33e-01 1.97e+06  -6.0 3.80e+02  -1.9 4.36e-03 2.93e-04h  7
  15 -3.4184869e-02 1.33e-01 1.97e+06  -6.0 3.88e+02  -1.5 5.57e-04 4.66e-04h  7
  16 -3.4183675e-02 1.33e-01 1.97e+06  -6.0 3.76e+02  -1.9 5.54e-02 3.13e-05h 10
  17 -3.3928196e-02 1.36e-01 1.86e+06  -6.0 3.87e+02  -1.5 1.01e-03 1.59e-02h  2
  18 -3.3494647e-02 1.38e-01 1.85e+06  -6.0 3.27e+02  -2.0 6.20e-03 6.41e-03h  1
  19r-3.3494647e-02 1.38e-01 1.00e+03  -1.4 0.00e+00  -2.5 0.00e+00 3.83e-07R  5
iter    objective    inf_pr   inf_du lg(mu)  ||d||  lg(rg) alpha_du alpha_pr  ls
  20r-3.3558835e-02 1.34e-01 2.16e+03  -1.4 2.78e+03    -  2.18e-04 3.25e-05f  1
  21 -3.3558834e-02 1.34e-01 9.92e+03  -6.0 2.25e+02    -  3.61e-02 1.83e-06h  2
  22 -3.3544782e-02 1.33e-01 3.80e+04  -6.0 3.82e+02    -  7.83e-02 7.73e-03h  1
  23 -3.3478076e-02 1.26e-01 5.57e+04  -6.0 3.84e+02    -  1.22e-01 4.15e-02h  3
  24 -3.3343227e-02 1.11e-01 1.06e+05  -6.0 3.43e+02    -  2.03e-01 7.98e-02h  2
  25 -3.3173085e-02 9.74e-02 9.87e+04  -6.0 2.89e+02    -  9.03e-02 8.57e-02h  3
  26 -3.3002433e-02 8.26e-02 1.81e+05  -6.0 2.40e+02    -  4.01e-01 9.97e-02h  3
  27 -3.2739682e-02 7.46e-02 1.95e+05  -6.0 2.17e+02    -  3.03e-01 1.09e-01h  3
  28 -3.2514355e-02 7.82e-02 2.11e+05  -6.0 1.81e+02    -  5.46e-01 1.16e-01h  3
  29 -3.2467336e-02 7.74e-02 2.01e+05  -6.0 1.51e+02    -  4.26e-01 6.09e-02h  4
iter    objective    inf_pr   inf_du lg(mu)  ||d||  lg(rg) alpha_du alpha_pr  ls
  30 -3.4641154e-02 8.79e-02 1.59e+05  -6.0 1.38e+02    -  2.20e-01 2.06e-01H  1
  31 -3.4365900e-02 9.77e-02 1.23e+05  -6.0 9.80e+01    -  6.02e-01 1.20e-01h  3
  32 -3.4440844e-02 1.07e-01 1.15e+05  -6.0 3.29e+02    -  3.35e-07 3.44e-02f  3
  33 -3.4927297e-02 9.60e-02 7.02e+03  -6.0 2.22e+01  -2.9 3.70e-01 1.19e-01h  1
  34 -3.4934541e-02 9.56e-02 1.01e+05  -6.0 2.06e+01  -3.4 7.12e-01 4.20e-03h  1
  35 -3.5413246e-02 1.00e-01 9.14e+04  -6.0 3.86e+01  -3.9 1.22e-03 3.99e-01H  1
  36 -3.5413778e-02 1.00e-01 9.12e+04  -6.0 1.77e+01  -4.4 2.49e-02 7.36e-04h  1
  37 -3.5413863e-02 1.00e-01 8.61e+04  -6.0 5.07e+01  -4.8 1.68e-02 1.34e-04h  1
  38 -3.5527110e-02 8.08e-02 8.20e+04  -6.0 2.89e+01  -5.3 5.11e-02 1.91e-01h  1
  39 -3.5948688e-02 7.82e-02 7.99e+04  -6.0 4.55e+02    -  2.67e-02 2.86e-02h  2
iter    objective    inf_pr   inf_du lg(mu)  ||d||  lg(rg) alpha_du alpha_pr  ls
  40 -3.5950816e-02 7.80e-02 7.99e+04  -6.0 1.29e+02  -4.0 1.70e-02 2.38e-02h  4
  41 -3.6003406e-02 7.39e-02 7.06e+04  -6.0 8.02e+00  -3.6 1.23e-02 5.25e-02h  1
  42 -3.6007677e-02 7.36e-02 7.26e+04  -6.0 7.27e+00  -3.1 1.06e-02 3.98e-03h  1
  43 -3.6074870e-02 6.84e-02 1.30e+05  -6.0 7.56e+00  -3.6 5.56e-01 7.08e-02f  1
  44 -3.6178959e-02 6.12e-02 9.90e+04  -6.0 6.80e+00  -3.2 3.98e-02 1.02e-01f  1
  45 -3.6523799e-02 4.06e-02 8.44e+04  -6.0 1.19e+01  -3.7 8.54e-01 4.48e-01h  1
  46 -3.7058006e-02 4.54e-02 1.91e+04  -6.0 5.59e+00  -4.1 4.92e-01 1.00e+00h  1
  47 -3.7355176e-02 1.22e-02 3.14e+03  -6.0 1.58e+00  -4.6 5.72e-01 1.00e+00h  1
  48 -3.8460576e-02 6.25e-02 4.79e+02  -6.0 5.46e+00  -5.1 7.28e-01 1.00e+00h  1
  49 -3.9724033e-02 1.58e-01 3.02e+02  -6.0 1.56e+01  -5.6 4.06e-01 4.26e-01h  1
iter    objective    inf_pr   inf_du lg(mu)  ||d||  lg(rg) alpha_du alpha_pr  ls
  50 -4.6096667e-02 2.05e+00 1.35e+03  -6.0 8.41e+01  -6.1 1.75e-01 4.52e-01f  1
  51 -4.6139244e-02 2.01e+00 9.71e+02  -6.0 5.68e+01  -6.5 1.36e-01 2.01e-02h  1
  52 -4.7952613e-02 3.23e+00 9.76e+02  -6.0 1.19e+02  -7.0 1.02e-01 1.49e-01f  1
  53 -5.0936078e-02 7.07e+00 8.32e+02  -6.0 2.04e+02  -7.5 1.34e-01 1.72e-01h  1
  54 -5.1877124e-02 6.92e+00 8.22e+02  -6.0 1.15e+02  -7.1 6.45e-02 8.52e-02h  1
  55 -5.5053619e-02 8.49e+00 8.38e+02  -6.0 5.18e+02  -7.5 1.74e-02 6.63e-02h  1
  56 -5.6085916e-02 8.32e+00 7.45e+02  -6.0 1.65e+02  -7.1 8.75e-02 4.43e-02h  1
  57 -5.9557941e-02 6.24e+00 7.26e+02  -6.0 7.30e+02  -7.6 2.98e-02 7.36e-02h  1
  58 -6.0343147e-02 5.33e+00 1.58e+02  -6.0 3.32e+01  -6.3 6.09e-01 1.61e-01h  1
  59 -6.1816636e-02 4.53e+00 1.49e+02  -6.0 1.04e+02  -6.7 3.84e-01 1.54e-01h  1
iter    objective    inf_pr   inf_du lg(mu)  ||d||  lg(rg) alpha_du alpha_pr  ls
  60 -6.2942671e-02 2.85e+00 9.50e+01  -6.0 2.90e+01  -6.3 6.94e-01 3.97e-01h  1
  61 -6.5574735e-02 2.10e+00 1.08e+02  -6.0 5.41e+01  -6.8 9.92e-01 5.56e-01h  1
  62 -6.6107099e-02 1.96e+00 3.36e+02  -6.0 1.30e+02  -7.3 4.70e-01 8.39e-02h  1
  63 -7.3214524e-02 4.68e+00 2.20e+02  -6.0 3.52e+02  -7.7 4.44e-01 4.61e-01h  1
  64 -7.3353293e-02 4.68e+00 2.27e+02  -6.0 4.99e+03  -8.2 2.64e-03 8.15e-04h  1
  65 -7.5732218e-02 4.30e+00 2.82e+02  -6.0 6.65e+02  -7.8 1.18e-01 1.02e-01f  1
  66 -7.8634572e-02 4.38e+00 3.45e+02  -6.0 9.44e+03  -8.3 6.61e-03 1.03e-02h  1
Error in an AMPL evaluation. Run with "halt_on_ampl_error yes" to see details.
Warning: Cutting back alpha due to evaluation error
  67 -7.9494307e-02 4.07e+00 3.22e+02  -6.0 4.55e+02  -7.8 3.13e-02 1.14e-01h  2
  68 -8.0273642e-02 4.03e+00 2.97e+02  -6.0 2.28e+03  -8.3 1.31e-01 2.38e-02h  1
Error in an AMPL evaluation. Run with "halt_on_ampl_error yes" to see details.
Warning: Cutting back alpha due to evaluation error
  69 -8.1700528e-02 3.77e+00 2.74e+02  -6.0 5.59e+02  -7.9 1.65e-01 1.49e-01h  2
Error in an AMPL evaluation. Run with "halt_on_ampl_error yes" to see details.
Warning: Cutting back alpha due to evaluation error
iter    objective    inf_pr   inf_du lg(mu)  ||d||  lg(rg) alpha_du alpha_pr  ls
  70 -8.2918472e-02 3.81e+00 2.59e+02  -6.0 2.01e+03  -8.4 1.02e-01 5.61e-02h  2
Error in an AMPL evaluation. Run with "halt_on_ampl_error yes" to see details.
Warning: Cutting back alpha due to evaluation error
  71 -8.3989758e-02 3.56e+00 1.91e+02  -6.0 6.07e+02  -7.9 3.46e-01 1.16e-01h  2
  72 -8.7693835e-02 4.84e+00 4.88e+02  -6.0 1.99e+03  -8.4 4.26e-02 1.84e-01h  1
  73 -9.6899198e-02 2.90e+01 2.21e+03  -6.0 7.39e+03  -8.9 5.79e-03 1.79e-01h  1
  74 -9.7325385e-02 2.64e+01 1.95e+03  -6.0 6.90e+02  -8.5 6.84e-02 9.30e-02h  1
  75 -9.7868864e-02 2.56e+01 1.69e+03  -6.0 1.52e+03  -9.0 1.18e-01 3.17e-02h  1
  76 -9.9054856e-02 2.28e+01 9.60e+02  -6.0 7.57e+02  -8.5 2.92e-01 1.14e-01h  1
  77 -1.0460533e-01 3.23e+00 2.62e+03  -6.0 3.85e+02  -8.1 1.84e-02 9.71e-01h  1
  78 -1.0589859e-01 2.91e+00 2.07e+03  -6.0 6.20e+02  -8.6 1.11e-01 3.59e-01h  1
  79 -1.0783765e-01 4.02e+00 2.42e+03  -6.0 7.19e+02  -8.2 6.63e-03 6.23e-01h  1
iter    objective    inf_pr   inf_du lg(mu)  ||d||  lg(rg) alpha_du alpha_pr  ls
  80 -1.0822919e-01 2.01e+00 2.36e+03  -6.0 6.30e+03  -8.6 8.26e-06 4.60e-02H  1
  81 -1.0995259e-01 7.44e-01 6.65e+02  -6.0 2.07e+02  -8.2 4.64e-01 1.00e+00f  1
  82 -1.1130883e-01 1.35e+00 4.55e+02  -6.0 6.38e+02  -8.7 7.00e-01 3.22e-01h  1
  83 -1.1384614e-01 3.25e+01 3.62e+02  -6.0 6.09e+03  -9.2 7.20e-02 2.01e-01h  1
  84 -1.1400853e-01 3.02e+01 2.86e+03  -6.0 6.12e+02  -8.7 6.53e-01 7.31e-02h  1
  85 -1.1694585e-01 2.17e+01 1.95e+03  -6.0 1.48e+03  -9.2 1.02e-01 3.94e-01h  1
  86 -1.1811865e-01 1.97e+01 2.28e+03  -6.0 4.06e+03  -9.7 3.17e-01 1.22e-01h  1
  87 -1.1801258e-01 1.82e+01 8.05e+02  -6.0 9.39e+02  -7.5 1.16e-01 7.91e-02h  1
  88 -1.1836226e-01 1.19e+01 5.19e+02  -6.0 2.96e+02  -7.9 5.14e-01 3.59e-01h  1
  89 -1.1882009e-01 6.37e+00 2.38e+02  -6.0 4.20e+02  -7.5 4.06e-01 5.41e-01h  1
iter    objective    inf_pr   inf_du lg(mu)  ||d||  lg(rg) alpha_du alpha_pr  ls
  90 -1.1920792e-01 5.60e+00 1.81e+02  -6.0 8.48e+02  -8.0 1.20e-01 2.32e-01h  1
  91 -1.1933237e-01 5.35e+00 1.69e+02  -6.0 1.19e+03  -7.6 3.88e-02 6.41e-02h  1
  92 -1.1947015e-01 4.78e+00 1.51e+02  -6.0 7.60e+02  -8.0 3.43e-02 1.08e-01h  1
  93 -1.1947589e-01 4.78e+00 1.50e+02  -6.0 1.13e+04  -7.6 6.32e-03 1.29e-04h  1
  94 -1.1942714e-01 4.64e+00 1.46e+02  -6.0 3.44e+02  -7.2 7.53e-03 2.90e-02h  3
  95 -1.1950690e-01 2.46e+00 7.85e+01  -6.0 7.32e+00  -6.8 1.27e-01 4.70e-01h  1
  96 -1.1954309e-01 2.10e+00 6.43e+01  -6.0 4.05e+01  -7.2 3.26e-01 1.77e-01f  1
  97 -1.1964438e-01 3.28e-02 2.81e+00  -6.0 7.45e+00  -6.8 1.00e+00 1.00e+00h  1
  98 -1.1972534e-01 1.28e-01 5.58e+00  -6.0 2.16e+01  -7.3 7.85e-01 5.86e-01h  1
  99 -1.1995838e-01 6.35e-01 7.61e+01  -6.0 6.26e+01  -7.8 8.06e-01 6.20e-01h  1
iter    objective    inf_pr   inf_du lg(mu)  ||d||  lg(rg) alpha_du alpha_pr  ls
 100 -1.2062222e-01 4.31e-01 6.84e+01  -6.0 1.57e+02  -8.2 5.57e-01 8.68e-01h  1
 101 -1.2130109e-01 5.04e-01 4.36e+01  -6.0 2.60e+02  -8.7 1.00e+00 5.32e-01h  1
 102 -1.2344668e-01 1.30e+00 8.50e+01  -6.0 5.99e+02  -9.2 6.52e-01 1.00e+00h  1
 103 -1.2468196e-01 2.22e+00 1.46e+02  -6.0 1.13e+03  -9.7 5.01e-01 4.40e-01h  1
 104 -1.2535607e-01 8.82e-01 1.17e+01  -6.0 4.65e+02  -9.2 6.90e-01 8.78e-01f  1
 105 -1.2639867e-01 2.83e+00 1.26e+02  -6.0 1.32e+03  -9.7 3.87e-01 4.52e-01h  1
 106 -1.2654533e-01 2.61e+00 2.48e+02  -6.0 7.34e+02  -9.3 1.35e-01 8.73e-02h  1
 107 -1.2664947e-01 2.60e+00 2.41e+02  -6.0 5.71e+04  -9.8 3.49e-03 2.74e-03h  1
 108 -1.2689532e-01 2.03e+00 1.35e+03  -6.0 6.27e+02  -9.3 4.79e-01 2.50e-01h  1
 109 -1.2737886e-01 2.29e+00 1.97e+02  -6.0 1.81e+03  -9.8 1.66e-01 2.38e-01h  1
iter    objective    inf_pr   inf_du lg(mu)  ||d||  lg(rg) alpha_du alpha_pr  ls
 110 -1.2767905e-01 1.86e+00 2.47e+03  -6.0 8.21e+02  -9.4 2.84e-01 2.17e-01h  1
 111 -1.2769570e-01 1.81e+00 2.20e+03  -6.0 5.97e+01  -7.2 2.80e-02 2.98e-02h  1
 112 -1.2762636e-01 2.56e+00 1.64e+05  -6.0 2.63e+03  -7.6 3.22e-04 3.05e-03h  1
 113 -1.2777684e-01 5.16e-01 1.92e+04  -6.0 3.96e+01  -8.1 1.88e-01 7.15e-01h  1
 114 -1.2778122e-01 5.14e-01 1.88e+04  -6.0 1.46e+02  -7.7 6.24e-02 2.99e-03h  2
 115 -1.2778098e-01 4.46e+00 1.84e+04  -6.0 3.58e+02  -8.2 1.50e-02 3.09e-02h  2
 116 -1.2788518e-01 1.37e+01 7.95e+03  -6.0 1.63e+02  -8.6 7.02e-01 2.62e-01h  1
 117 -1.2822616e-01 1.39e+01 5.59e+03  -6.0 7.03e+02  -9.1 3.26e-01 2.97e-01h  1
 118 -1.2825430e-01 1.19e+01 4.75e+03  -6.0 5.49e+01  -6.9 1.22e-03 1.48e-01h  1
 119 -1.2833035e-01 9.09e+00 3.61e+03  -6.0 1.07e+01  -6.5 6.32e-01 2.47e-01h  1
iter    objective    inf_pr   inf_du lg(mu)  ||d||  lg(rg) alpha_du alpha_pr  ls
 120 -1.2863125e-01 1.94e+00 8.02e+02  -6.0 1.14e+01  -6.9 3.67e-01 7.80e-01h  1
 121 -1.2887431e-01 8.52e-01 3.60e+02  -6.0 1.17e+01  -7.4 1.00e+00 5.59e-01h  1
 122 -1.2928352e-01 1.58e-01 7.12e+01  -6.0 2.01e+01  -7.9 1.00e+00 8.13e-01h  1
 123 -1.2960253e-01 1.34e-01 2.02e+02  -6.0 6.06e+01  -8.4 7.18e-01 5.19e-01h  1
 124 -1.3044582e-01 8.16e-01 3.37e+01  -6.0 1.90e+02  -8.9 1.00e+00 1.00e+00h  1
 125 -1.3073566e-01 9.25e-01 1.06e+03  -6.0 5.47e+02  -9.3 4.47e-01 1.94e-01h  1
 126 -1.3153290e-01 1.42e+01 2.52e+02  -6.0 1.80e+03  -9.8 3.85e-01 4.56e-01h  1
 127 -1.3248043e-01 7.15e+00 2.31e+03  -6.0 5.74e+02  -9.4 1.00e+00 7.30e-01h  1
 128 -1.3310038e-01 3.93e+01 1.41e+03  -6.0 6.59e+03  -9.9 8.05e-02 1.99e-01h  1
 129 -1.3359457e-01 3.53e+01 9.13e+03  -6.0 2.16e+04 -10.3 1.25e-01 4.15e-01H  1
iter    objective    inf_pr   inf_du lg(mu)  ||d||  lg(rg) alpha_du alpha_pr  ls
 130 -1.3376108e-01 3.44e+01 8.66e+03  -6.0 3.00e+04    -  1.09e-02 2.46e-02h  1
 131 -1.3408357e-01 2.99e+01 8.68e+03  -6.0 3.75e+03    -  6.47e-02 1.31e-01h  1
 132 -1.3440312e-01 2.26e+01 6.81e+03  -6.0 2.62e+03    -  2.78e-01 2.45e-01h  1
 133 -1.3464027e-01 1.73e+01 2.96e+06  -6.0 1.93e+03    -  2.91e-03 4.80e-01h  1
 134 -1.3464398e-01 1.70e+01 2.90e+06  -6.0 1.46e+03    -  1.59e-01 1.96e-02h  1
 135 -1.3521484e-01 1.69e+01 8.85e+02  -6.0 3.12e+03    -  1.43e-01 1.00e+00h  1
 136 -1.3572090e-01 1.11e+01 7.98e+02  -6.0 3.05e+03  -9.0 4.83e-02 1.02e-01h  1
 137 -1.3572437e-01 1.04e+01 7.49e+02  -6.0 2.02e+01  -5.9 6.73e-02 6.08e-02h  1
 138 -1.3583507e-01 9.54e+00 6.79e+02  -6.0 6.48e+01  -6.3 1.83e-01 8.60e-02h  1
 139 -1.3593243e-01 4.11e+00 3.11e+02  -6.0 2.23e+01  -5.9 4.88e-02 5.69e-01h  1
iter    objective    inf_pr   inf_du lg(mu)  ||d||  lg(rg) alpha_du alpha_pr  ls
 140 -1.3578576e-01 7.59e-01 6.82e+00  -6.0 3.97e+00  -5.5 9.42e-01 1.00e+00h  1
 141 -1.3586724e-01 1.22e+00 1.60e+01  -6.0 3.30e+00  -6.0 1.00e+00 1.00e+00h  1
 142 -1.3599354e-01 2.69e+00 2.53e+01  -6.0 4.74e+00  -6.4 1.00e+00 1.00e+00h  1
 143 -1.3618518e-01 1.47e+00 7.05e+01  -6.0 3.36e+01  -6.9 6.72e-01 4.78e-01h  1
 144 -1.3622452e-01 7.40e+00 7.09e+01  -6.0 2.85e+01  -7.4 4.55e-01 6.66e-01h  1
 145 -1.3632339e-01 7.30e+00 7.72e+01  -6.0 3.87e+02  -7.9 4.55e-02 2.32e-02h  1
 146 -1.3647242e-01 5.51e+00 2.44e+02  -6.0 2.22e+02  -8.4 1.00e+00 2.62e-01h  1
 147 -1.3659942e-01 4.57e+00 2.80e+02  -6.0 4.31e+02  -8.8 6.86e-01 1.70e-01h  1
 148 -1.3675262e-01 2.53e+00 2.50e+02  -6.0 1.68e+02  -9.3 1.00e+00 4.35e-01h  1
 149 -1.3691855e-01 2.22e+00 3.04e+02  -6.0 4.59e+02  -9.8 6.41e-01 2.72e-01h  1
iter    objective    inf_pr   inf_du lg(mu)  ||d||  lg(rg) alpha_du alpha_pr  ls
 150 -1.3702746e-01 7.16e+00 1.89e+02  -6.0 4.25e+03 -10.3 6.85e-02 1.83e-01h  1
 151 -1.3778748e-01 6.11e+00 4.26e+02  -6.0 7.46e+02  -9.8 1.65e-01 8.66e-01h  1
 152 -1.3783391e-01 5.67e+00 4.65e+02  -6.0 1.42e+03  -9.4 1.11e-02 4.72e-02H  1
 153 -1.3782277e-01 4.44e+01 4.67e+02  -6.0 3.16e+04  -9.9 4.30e-02 6.03e-02h  1
 154 -1.3787013e-01 3.78e+01 3.92e+02  -6.0 1.33e+03 -10.4 1.62e-01 1.63e-01h  1
 155 -1.3789166e-01 3.62e+01 3.58e+02  -6.0 6.18e+03 -10.8 5.72e-02 6.30e-02h  1
 156 -1.3795949e-01 4.97e+01 8.38e+01  -6.0 3.52e+04    -  1.61e-02 6.23e-02H  1
 157 -1.3799492e-01 3.90e+01 9.73e+02  -6.0 3.55e+03    -  7.37e-02 2.16e-01h  1
 158 -1.3797168e-01 1.37e+01 7.23e+03  -6.0 2.90e+03    -  8.84e-02 1.00e+00h  1
 159 -1.3793688e-01 1.09e+01 5.67e+03  -6.0 5.90e+02    -  5.11e-01 2.18e-01h  1
iter    objective    inf_pr   inf_du lg(mu)  ||d||  lg(rg) alpha_du alpha_pr  ls
 160 -1.3776033e-01 1.38e+01 2.31e+01  -6.0 9.71e+02    -  6.96e-01 1.00e+00h  1
 161 -1.3768240e-01 3.45e+00 1.73e+01  -6.0 4.31e+02    -  2.45e-01 1.00e+00h  1
 162 -1.3768129e-01 3.41e+00 8.91e+00  -6.0 1.17e+03 -10.4 3.58e-01 1.25e-01h  4
 163 -1.3772557e-01 9.48e-01 4.46e+00  -6.0 4.08e+02    -  1.00e+00 7.81e-01h  1
 164 -1.3776587e-01 2.79e+01 1.26e+03  -6.0 1.38e+03    -  5.15e-03 1.00e+00h  1
 165 -1.3767607e-01 7.61e-01 4.72e+01  -6.0 2.06e+02  -9.1 2.92e-01 1.00e+00h  1
 166 -1.3768539e-01 5.90e-02 8.77e+00  -6.0 4.89e+01  -9.6 1.00e+00 1.00e+00h  1
 167 -1.3766741e-01 2.04e+00 1.20e+02  -6.0 8.09e+02    -  6.91e-01 1.00e+00H  1
 168 -1.3768345e-01 5.38e-01 1.26e+02  -6.0 8.48e+03    -  7.38e-02 3.50e-02h  3
 169 -1.3793527e-01 1.81e+00 2.74e+02  -6.0 9.84e+02 -10.0 4.28e-01 1.00e+00H  1
iter    objective    inf_pr   inf_du lg(mu)  ||d||  lg(rg) alpha_du alpha_pr  ls
 170 -1.3780574e-01 5.62e+00 2.00e+02  -6.0 2.33e+03 -10.5 2.06e-01 2.74e-01h  1
 171 -1.3797900e-01 3.36e+00 1.10e+02  -6.0 3.62e+02    -  6.87e-01 5.03e-01h  1
 172 -1.3806096e-01 1.01e+01 2.36e+04  -6.0 7.60e+02    -  3.44e-03 1.00e+00H  1
 173 -1.3800885e-01 6.90e+00 4.84e+01  -6.0 6.39e+02    -  9.83e-01 1.00e+00h  1
 174 -1.3800719e-01 4.55e+00 7.37e+01  -6.0 1.77e+02 -10.1 1.00e+00 3.48e-01h  1
 175 -1.3800521e-01 2.85e-01 5.19e+00  -6.0 1.07e+02    -  1.00e+00 1.00e+00h  1
 176 -1.3800695e-01 2.10e-01 1.16e+01  -6.0 2.59e+02    -  1.00e+00 2.50e-01h  3
 177 -1.3800965e-01 1.68e-01 1.03e+00  -6.0 9.63e+01    -  1.00e+00 1.00e+00h  1
 178 -1.3801155e-01 3.68e-03 2.31e-03  -6.0 1.44e+01    -  1.00e+00 1.00e+00h  1
 179 -1.3801153e-01 6.42e-06 8.03e-07  -6.0 5.99e-01    -  1.00e+00 1.00e+00h  1
iter    objective    inf_pr   inf_du lg(mu)  ||d||  lg(rg) alpha_du alpha_pr  ls
 180 -1.3855075e-01 6.51e+00 1.17e+01  -7.5 3.73e+03    -  1.71e-01 1.73e-01h  1
 181 -1.3874167e-01 7.36e+00 2.56e+01  -7.5 4.03e+03    -  3.42e-02 7.08e-02h  1
 182 -1.3912735e-01 1.01e+01 2.11e+01  -7.5 2.55e+03    -  3.45e-01 2.32e-01h  1
 183 -1.3929633e-01 1.07e+01 1.86e+01  -7.5 2.43e+03    -  1.61e-01 1.81e-01h  1
 184 -1.3930063e-01 1.06e+01 7.35e+01  -7.5 9.34e+02  -9.7 4.92e-01 6.33e-03h  1
 185 -1.3977281e-01 2.84e+01 6.61e+01  -7.5 2.51e+03    -  8.01e-03 5.85e-01h  1
 186 -1.3981227e-01 2.30e+01 5.13e+01  -7.5 1.16e+03    -  2.23e-01 1.91e-01h  1
 187 -1.3989913e-01 1.27e+01 2.92e+01  -7.5 1.10e+03    -  4.33e-01 4.51e-01h  1
 188 -1.3991618e-01 1.12e+01 2.35e+01  -7.5 1.70e+03    -  3.09e-01 1.17e-01h  1
 189 -1.3995979e-01 8.54e+00 2.84e+01  -7.5 1.14e+03    -  6.54e-01 2.50e-01h  1
iter    objective    inf_pr   inf_du lg(mu)  ||d||  lg(rg) alpha_du alpha_pr  ls
 190 -1.4003474e-01 4.59e+00 7.64e+00  -7.5 7.07e+02    -  1.92e-01 5.22e-01h  1
 191 -1.4012636e-01 1.65e+00 7.70e+01  -7.5 3.33e+02    -  2.94e-01 8.38e-01h  1
 192 -1.4016270e-01 1.11e+00 6.67e+01  -7.5 4.22e+02    -  6.27e-01 3.48e-01h  1
 193 -1.4026004e-01 1.11e+00 1.29e+02  -7.5 2.04e+02    -  6.81e-01 9.78e-01h  1
 194 -1.4028705e-01 8.63e-01 2.73e+02  -7.5 3.99e+01 -10.1 4.70e-01 2.42e-01h  1
 195 -1.4032717e-01 1.52e+01 3.18e+02  -7.5 3.17e+03    -  7.19e-02 3.58e-01h  1
 196 -1.4033673e-01 1.39e+01 1.29e+02  -7.5 3.23e+02    -  1.29e-01 8.12e-02h  1
 197 -1.4035683e-01 1.16e+01 1.36e+03  -7.5 4.38e+02    -  5.83e-01 1.70e-01h  1
 198 -1.4037433e-01 1.02e+01 1.42e+03  -7.5 1.30e+03    -  2.30e-01 1.42e-01h  1
 199 -1.4043893e-01 1.26e+01 7.53e+02  -7.5 1.50e+03    -  1.22e-01 5.12e-01h  1
iter    objective    inf_pr   inf_du lg(mu)  ||d||  lg(rg) alpha_du alpha_pr  ls
 200 -1.4044307e-01 1.79e+01 1.06e+03  -7.5 2.82e+04    -  9.95e-04 2.94e-02h  1
 201 -1.4044531e-01 1.79e+01 1.25e+03  -7.5 1.22e+04    -  1.12e-01 1.22e-02h  1
 202 -1.4044661e-01 1.78e+01 1.50e+03  -7.5 1.08e+04    -  9.21e-03 7.96e-03h  1
 203 -1.4044779e-01 1.77e+01 1.95e+03  -7.5 1.01e+04    -  9.02e-03 7.65e-03h  1
 204 -1.4046805e-01 1.07e+01 1.77e+03  -7.5 9.90e+02    -  2.64e-01 5.20e-01h  1
 205 -1.4047356e-01 9.29e+00 1.36e+03  -7.5 1.69e+03    -  1.86e-02 1.34e-01h  1
 206 -1.4047790e-01 1.17e+01 9.04e+02  -7.5 3.31e+03    -  6.05e-03 1.66e-01h  1
 207 -1.4050934e-01 3.52e+01 3.96e+02  -7.5 1.98e+03    -  7.06e-01 7.88e-01h  1
 208 -1.4053866e-01 4.57e+01 7.65e+02  -7.5 2.37e+03    -  3.01e-02 6.36e-01h  1
 209 -1.4053913e-01 3.42e+01 5.49e+02  -7.5 3.09e+02    -  5.14e-02 2.53e-01h  1
iter    objective    inf_pr   inf_du lg(mu)  ||d||  lg(rg) alpha_du alpha_pr  ls
 210 -1.4054001e-01 2.80e+01 4.44e+02  -7.5 3.32e+02 -10.6 3.33e-01 1.83e-01h  1
 211 -1.4055597e-01 1.51e+01 1.78e+02  -7.5 9.71e+02 -11.1 8.06e-01 1.00e+00h  1
 212 -1.4058299e-01 5.97e+01 5.46e+01  -7.5 6.33e+03    -  4.11e-01 2.78e-01h  1
 213 -1.4058016e-01 1.25e-01 5.29e+01  -7.5 3.57e+01    -  1.00e+00 1.00e+00h  1
 214 -1.4059892e-01 3.11e+01 9.52e+01  -7.5 1.35e+03    -  2.96e-01 1.00e+00h  1
 215 -1.4060909e-01 1.36e+01 5.91e+01  -7.5 8.33e+02    -  7.33e-02 1.00e+00h  1
 216 -1.4060202e-01 5.53e+00 2.45e+01  -7.5 5.49e+02    -  6.19e-01 1.00e+00h  1
 217 -1.4061806e-01 3.11e+01 9.34e+01  -7.5 2.46e+03    -  3.06e-01 5.02e-01h  1
 218 -1.4060849e-01 9.93e+00 3.42e+01  -7.5 7.36e+02    -  3.12e-01 1.00e+00h  1
 219 -1.4061876e-01 2.10e+01 8.18e+01  -7.5 9.39e+03    -  3.48e-01 8.43e-02h  1
iter    objective    inf_pr   inf_du lg(mu)  ||d||  lg(rg) alpha_du alpha_pr  ls
 220 -1.4062029e-01 3.35e-01 4.21e+00  -7.5 1.24e+02    -  1.00e+00 1.00e+00h  1
 221 -1.4061999e-01 2.33e-02 2.81e-01  -7.5 3.44e+01    -  5.77e-01 1.00e+00h  1
 222 -1.4062002e-01 1.67e-04 6.77e-04  -7.5 2.87e+00    -  1.00e+00 1.00e+00h  1
 223 -1.4062002e-01 2.93e-08 5.07e-07  -7.5 4.16e-02    -  1.00e+00 1.00e+00h  1
 224 -1.4062002e-01 2.64e-10 5.49e-12  -7.5 1.73e-04    -  1.00e+00 1.00e+00h  1
 225 -1.4062328e-01 9.23e-02 2.40e+00  -9.0 2.59e+02    -  2.88e-01 3.04e-01h  1
 226 -1.4063019e-01 2.10e+01 7.95e+01  -9.0 1.17e+05    -  2.16e-02 8.78e-03h  1
 227 -1.4063790e-01 2.77e+01 1.19e+02  -9.0 3.62e+03    -  1.86e-01 2.32e-01h  1
 228 -1.4064255e-01 2.74e+01 1.26e+02  -9.0 4.34e+03    -  2.91e-01 1.62e-01h  1
 229 -1.4064967e-01 4.42e+01 1.33e+02  -9.0 3.43e+03    -  3.20e-01 3.66e-01h  1
iter    objective    inf_pr   inf_du lg(mu)  ||d||  lg(rg) alpha_du alpha_pr  ls
 230 -1.4065356e-01 4.07e+01 2.54e+01  -9.0 1.55e+03    -  1.00e-02 8.19e-01h  1
 231 -1.4065068e-01 1.55e-01 7.70e+00  -9.0 1.02e+02    -  4.01e-02 1.00e+00h  1
 232 -1.4065131e-01 8.47e-02 7.37e-01  -9.0 6.42e+01    -  1.00e+00 1.00e+00h  1
 233 -1.4065130e-01 2.12e-02 8.98e-02  -9.0 3.23e+01    -  1.00e+00 1.00e+00h  1
 234 -1.4065129e-01 6.76e-08 1.75e-05  -9.0 3.78e-02    -  1.00e+00 1.00e+00h  1
 235 -1.4065129e-01 3.06e-10 2.60e-12  -9.0 2.88e-05    -  1.00e+00 1.00e+00h  1

Number of Iterations....: 235

                                   (scaled)                 (unscaled)
Objective...............:  -1.4065129338051791e-01   -1.4065129338051791e-01
Dual infeasibility......:   2.6043056600144610e-12    2.6043056600144610e-12
Constraint violation....:   3.0574529366611536e-10    3.0574529366611536e-10
Complementarity.........:   9.0909098745594055e-10    9.0909098745594055e-10
Overall NLP error.......:   9.0909098745594055e-10    9.0909098745594055e-10


Number of objective function evaluations             = 368
Number of objective gradient evaluations             = 236
Number of equality constraint evaluations            = 372
Number of inequality constraint evaluations          = 369
Number of equality constraint Jacobian evaluations   = 237
Number of inequality constraint Jacobian evaluations = 237
Number of Lagrangian Hessian evaluations             = 235
Total CPU secs in IPOPT (w/o function evaluations)   =    116.726
Total CPU secs in NLP function evaluations           =      4.050

EXIT: Optimal Solution Found.
